echo

start ch4.md

title "Title"
charge 0

geometry units angstroms print xyz
   C        0.47356       -0.71524       -0.01092
   H        1.54617       -0.45004        0.08877
   H       -0.06479        0.10800       -0.52398
   H        0.03614       -0.87178        0.99651
   H        0.37671       -1.64716       -0.60500
end

basis
  * library 6-31G*
end

dft
  xc pbe0
  mult 1
end

qmd
  nstep_nucl  200
  dt_nucl     10.0
  targ_temp   200.0
  com_step    10
  thermostat  svr 100.0
  print_xyz   5
end
task dft qmd

